
List of user-set options:

                                    Name   Value                used
                           compl_inf_tol = 1                     yes
                         constr_viol_tol = 1                     yes
                            dual_inf_tol = 1000                  yes
                           linear_solver = ma97                  yes
                              ma86_small = 1e-30                  no
                                  ma86_u = 0.0001                 no
                              ma97_order = best                  yes
                              ma97_small = 1e-30                 yes
                            ma97_switch1 = at_start              yes
                            ma97_switch2 = od_hd_reuse           yes
                                  ma97_u = 1e-06                 yes
                               ma97_umax = 0.5                   yes
                                max_iter = 1000                  yes
                    max_refinement_steps = 20                    yes
                    min_refinement_steps = 5                     yes
                                 mu_init = 1e-06                 yes
           mu_superlinear_decrease_power = 1.25                  yes
                   nlp_scaling_min_value = 1e-08                 yes
                        option_file_name = Preset_Case:_49_NCP.opt  yes
                             output_file = ./tmp/Preset_Case:_49_NCP.output  yes
                      print_user_options = yes                   yes
        required_infeasibility_reduction = 1                      no
                                     tol = 1e-08                 yes
                   warm_start_bound_frac = 1e-20                 yes
                   warm_start_bound_push = 1e-20                 yes
                   warm_start_init_point = yes                   yes
              warm_start_mult_bound_push = 1e-20                 yes
                warm_start_mult_init_max = 1e+40                 yes
             warm_start_slack_bound_frac = 1e-20                 yes
             warm_start_slack_bound_push = 1e-20                 yes

******************************************************************************
This program contains Ipopt, a library for large-scale nonlinear optimization.
 Ipopt is released as open source code under the Eclipse Public License (EPL).
         For more information visit http://projects.coin-or.org/Ipopt
******************************************************************************

This is Ipopt version 3.12.10, running with linear solver ma97.

Number of nonzeros in equality constraint Jacobian...:   117167
Number of nonzeros in inequality constraint Jacobian.:      213
Number of nonzeros in Lagrangian Hessian.............:    47513

Total number of variables............................:    29977
                     variables with only lower bounds:    11312
                variables with lower and upper bounds:    15135
                     variables with only upper bounds:        0
Total number of equality constraints.................:    29864
Total number of inequality constraints...............:       25
        inequality constraints with only lower bounds:        4
   inequality constraints with lower and upper bounds:        0
        inequality constraints with only upper bounds:       21

iter    objective    inf_pr   inf_du lg(mu)  ||d||  lg(rg) alpha_du alpha_pr  ls
   0 -1.0090278e-01 2.90e-01 2.00e+00  -6.0 0.00e+00    -  0.00e+00 0.00e+00   0
In iteration 0, 9 Slacks too small, adjusting variable bounds
   1 -1.0090278e-01 2.90e-01 7.20e+02  -6.0 1.15e+10    -  7.19e-14 2.86e-19h  1
   2 -1.0090298e-01 2.90e-01 7.21e+02  -6.0 1.69e+02    -  3.63e-06 2.67e-05f  1
   3 -1.0090300e-01 2.90e-01 7.21e+02  -6.0 1.18e+02    -  2.01e-05 3.24e-06h  2
   4 -1.0090304e-01 2.90e-01 7.31e+02  -6.0 1.17e+02    -  4.49e-02 2.38e-05h  1
   5 -1.0090329e-01 2.90e-01 7.31e+02  -6.0 1.56e+02    -  1.15e-04 3.56e-05h  1
   6 -1.0121795e-01 2.79e-01 6.99e+02  -6.0 1.62e+02    -  1.95e-02 3.86e-02f  1
   7 -1.0144453e-01 2.62e-01 6.54e+02  -6.0 1.22e+02    -  2.57e-02 6.04e-02f  1
   8 -1.0172968e-01 2.47e-01 6.40e+02  -6.0 1.12e+02    -  4.03e-03 6.00e-02f  1
   9 -1.0264310e-01 1.34e+00 1.81e+03  -6.0 4.36e+01    -  3.73e-01 3.64e-01h  1
iter    objective    inf_pr   inf_du lg(mu)  ||d||  lg(rg) alpha_du alpha_pr  ls
  10 -1.0264291e-01 1.34e+00 4.41e+03  -6.0 3.01e+01    -  3.54e-01 1.68e-04h  1
  11 -1.0255712e-01 1.24e+00 4.08e+03  -6.0 2.95e+01    -  9.47e-02 8.26e-02h  3
  12 -1.0270682e-01 1.08e+00 3.46e+03  -6.0 2.86e+01    -  4.02e-01 1.55e-01h  2
  13 -1.0277468e-01 9.96e-01 1.67e+03  -6.0 2.74e+01    -  3.10e-01 9.31e-02h  2
  14 -1.0275526e-01 9.82e-01 1.65e+03  -6.0 2.75e+01    -  1.86e-01 1.42e-02h  4
  15 -1.0346138e-01 4.53e+00 4.31e+03  -6.0 3.42e+01    -  7.45e-03 4.76e-01f  1
  16 -1.0435186e-01 2.73e+00 2.50e+03  -6.0 1.48e+01    -  4.51e-01 4.27e-01h  1
  17 -1.0440902e-01 2.66e+00 2.44e+03  -6.0 1.49e+01    -  3.79e-01 2.75e-02h  1
  18 -1.0550021e-01 2.04e+00 1.75e+03  -6.0 1.49e+01  -4.0 2.11e-01 2.83e-01h  1
  19 -1.0622206e-01 1.50e+00 1.23e+03  -6.0 1.05e+01  -3.6 3.55e-01 3.00e-01h  1
iter    objective    inf_pr   inf_du lg(mu)  ||d||  lg(rg) alpha_du alpha_pr  ls
  20 -1.0736373e-01 9.23e-01 7.20e+02  -6.0 1.10e+01  -4.1 4.69e-01 4.14e-01h  1
  21 -1.0925787e-01 6.71e-01 5.16e+02  -6.0 2.17e+01    -  5.81e-01 2.94e-01h  1
  22 -1.1458052e-01 9.57e-02 1.33e+02  -6.0 3.36e+00  -4.5 7.74e-01 9.99e-01h  1
  23 -1.2840347e-01 8.92e-01 3.64e+01  -6.0 9.49e+00  -5.0 6.03e-01 1.00e+00f  1
  24 -1.4219578e-01 2.37e+00 3.23e+01  -6.0 7.25e+01  -5.5 6.45e-02 2.14e-01h  1
  25 -1.4918393e-01 1.98e+00 4.23e+01  -6.0 6.80e+01  -6.0 2.89e-03 1.67e-01h  1
  26 -1.4914315e-01 1.98e+00 4.22e+01  -6.0 4.20e+03    -  5.14e-02 1.35e-03h  4
  27 -1.5666391e-01 1.70e+00 4.21e+01  -6.0 1.66e+02    -  2.78e-01 1.47e-01h  1
  28 -1.6160994e-01 1.54e+00 3.89e+01  -6.0 3.01e+02    -  3.36e-01 9.24e-02h  1
  29 -1.7168074e-01 1.86e+00 9.39e+01  -6.0 4.43e+02    -  2.76e-01 2.11e-01h  1
iter    objective    inf_pr   inf_du lg(mu)  ||d||  lg(rg) alpha_du alpha_pr  ls
  30 -1.7450011e-01 2.11e+00 8.24e+01  -6.0 4.66e+02    -  3.08e-01 8.11e-02h  1
  31 -1.7620064e-01 2.51e+00 9.06e+01  -6.0 4.97e+03    -  6.56e-02 3.43e-02h  1
  32 -1.8335247e-01 2.06e+00 8.54e+01  -6.0 4.58e+02    -  1.84e-01 2.87e-01h  1
  33 -1.8751133e-01 1.88e+00 9.31e+01  -6.0 5.33e+02    -  1.14e-01 2.15e-01h  1
  34 -1.8940996e-01 1.05e+00 1.43e+02  -6.0 1.84e+01  -6.4 3.30e-01 3.66e-01h  1
  35 -1.9039947e-01 7.52e-01 1.06e+02  -6.0 5.04e+01  -6.9 2.01e-01 3.60e-01h  1
  36 -1.9151626e-01 8.93e-01 7.61e+01  -6.0 3.87e+02  -7.4 3.79e-01 1.24e-01h  1
  37 -1.9506841e-01 9.64e+00 4.05e+01  -6.0 5.51e+02  -7.9 1.16e-01 2.58e-01h  1
  38 -1.9761121e-01 9.76e+00 4.96e+01  -6.0 7.60e+02  -8.3 3.51e-01 1.60e-01h  1
  39 -1.9813263e-01 9.73e+00 5.14e+01  -6.0 3.16e+04  -7.9 2.78e-02 2.77e-03h  1
iter    objective    inf_pr   inf_du lg(mu)  ||d||  lg(rg) alpha_du alpha_pr  ls
  40 -1.9811315e-01 9.73e+00 5.22e+01  -6.0 4.69e+04  -8.4 6.41e-03 6.87e-05h  8
  41 -2.0494280e-01 7.44e+00 4.03e+01  -6.0 6.69e+02  -8.0 2.16e-01 5.15e-01h  1
Error in an AMPL evaluation. Run with "halt_on_ampl_error yes" to see details.
Warning: Cutting back alpha due to evaluation error
  42 -2.0586407e-01 6.54e+00 3.74e+01  -6.0 5.52e+02  -7.5 2.10e-02 1.22e-01h  2
  43 -2.0808540e-01 1.93e+00 2.35e+01  -6.0 4.04e+02  -7.1 1.30e-02 7.73e-01h  1
  44 -2.0887126e-01 1.48e+00 2.23e+01  -6.0 1.68e+02  -7.6 3.65e-03 2.41e-01h  1
  45 -2.1153107e-01 1.04e+00 1.36e+01  -6.0 3.70e+02  -8.1 3.68e-01 3.44e-01h  1
Error in an AMPL evaluation. Run with "halt_on_ampl_error yes" to see details.
Warning: Cutting back alpha due to evaluation error
  46 -2.1238204e-01 9.73e-01 2.94e+03  -6.0 8.74e+02  -8.5 7.54e-01 7.06e-02h  2
  47 -2.1651498e-01 3.69e+00 3.26e+03  -6.0 2.23e+03  -9.0 5.59e-01 1.89e-01h  1
  48 -2.2174300e-01 5.31e+00 2.79e+03  -6.0 9.39e+02  -8.6 8.38e-01 4.62e-01h  1
  49 -2.2670066e-01 8.54e+00 1.21e+03  -6.0 1.35e+03  -9.1 1.38e-01 4.16e-01h  1
iter    objective    inf_pr   inf_du lg(mu)  ||d||  lg(rg) alpha_du alpha_pr  ls
  50 -2.2760838e-01 6.96e+00 1.06e+03  -6.0 7.09e+02  -8.7 1.95e-01 1.99e-01h  1
  51 -2.2812526e-01 5.82e+00 1.03e+03  -6.0 9.66e+02  -8.2 1.60e-01 1.67e-01h  1
  52 -2.3092098e-01 2.92e+00 2.07e+03  -6.0 4.08e+02  -8.7 5.95e-01 6.48e-01h  1
  53 -2.3143121e-01 2.14e+00 8.98e+03  -6.0 1.95e+02  -8.3 4.50e-01 2.72e-01h  1
  54 -2.3212861e-01 3.52e+00 3.64e+04  -6.0 1.83e+03  -8.8 3.60e-01 1.33e-01h  1
  55 -2.3287875e-01 3.08e+00 9.08e+04  -6.0 1.25e+03  -9.2 5.23e-01 1.30e-01h  1
  56 -2.3408654e-01 3.73e+00 4.48e+07  -6.0 1.75e+03  -8.8 8.27e-04 2.02e-01h  1
  57 -2.3520117e-01 3.57e+00 1.96e+04  -6.0 4.37e+02  -8.4 3.26e-02 1.00e+00h  1
  58 -2.3772923e-01 5.28e+00 3.55e+03  -6.0 6.27e+02  -8.9 1.62e-01 8.16e-01h  1
  59 -2.3785857e-01 5.07e+00 3.50e+03  -6.0 8.45e+03  -8.4 1.36e-06 1.51e-02H  1
iter    objective    inf_pr   inf_du lg(mu)  ||d||  lg(rg) alpha_du alpha_pr  ls
  60 -2.3822189e-01 4.66e+00 3.21e+03  -6.0 1.24e+03  -8.9 4.61e-02 8.27e-02f  1
  61 -2.3877297e-01 4.65e+00 3.19e+03  -6.0 5.94e+04  -9.4 5.96e-03 4.21e-03h  1
  62 -2.3890541e-01 4.40e+00 3.01e+03  -6.0 5.19e+02  -9.0 1.28e-05 5.52e-02h  1
  63 -2.3911338e-01 3.80e+00 7.95e+03  -6.0 2.80e+02  -7.6 3.77e-03 1.36e-01f  1
  64 -2.3909830e-01 3.02e-01 1.73e+03  -6.0 1.14e+02  -8.1 2.75e-03 1.00e+00f  1
  65 -2.3973207e-01 5.76e-01 1.45e+03  -6.0 1.22e+03  -8.6 3.68e-01 1.53e-01h  1
Error in an AMPL evaluation. Run with "halt_on_ampl_error yes" to see details.
Warning: Cutting back alpha due to evaluation error
  66 -2.3996586e-01 4.62e-01 4.00e+03  -6.0 1.21e+02  -6.4 4.73e-02 1.98e-01h  2
  67 -2.4016780e-01 8.75e-02 2.97e+02  -6.0 1.66e+01  -6.8 5.78e-01 8.52e-01h  1
  68 -2.4046512e-01 5.49e-02 1.86e+02  -6.0 3.93e+01  -7.3 1.13e-02 4.86e-01h  1
  69 -2.4077541e-01 7.06e-02 1.43e+03  -6.0 5.79e+01  -7.8 2.27e-01 7.57e-01f  1
iter    objective    inf_pr   inf_du lg(mu)  ||d||  lg(rg) alpha_du alpha_pr  ls
  70 -2.4088359e-01 4.65e-02 2.14e+01  -6.0 9.64e+00  -6.5 9.98e-01 1.00e+00f  1
  71 -2.4082199e-01 4.66e-01 3.98e+00  -6.0 6.69e+00  -6.0 6.95e-01 1.00e+00h  1
  72 -2.4089126e-01 4.86e-03 1.72e-01  -6.0 3.16e+00  -5.6 9.90e-01 1.00e+00h  1
  73 -2.4096746e-01 5.86e-01 2.62e+00  -6.0 1.72e+01  -6.1 1.00e+00 8.77e-01h  1
  74 -2.4115348e-01 1.21e+00 2.67e+00  -6.0 5.71e+00  -6.6 1.00e+00 1.00e+00h  1
  75 -2.4131310e-01 6.19e+00 6.70e+00  -6.0 3.62e+01  -7.0 3.66e-01 2.96e-01h  1
  76 -2.4141279e-01 5.93e+00 2.67e+01  -6.0 4.86e+01  -7.5 1.00e+00 1.48e-01h  1
  77 -2.4258545e-01 4.24e-01 2.03e+01  -6.0 1.11e+02  -8.0 1.00e+00 9.54e-01h  1
  78 -2.4292849e-01 3.50e-01 2.17e+01  -6.0 2.41e+02  -8.5 9.17e-01 1.71e-01h  1
  79 -2.4570469e-01 3.01e+00 1.49e+01  -6.0 6.06e+02  -8.9 1.00e+00 6.00e-01h  1
iter    objective    inf_pr   inf_du lg(mu)  ||d||  lg(rg) alpha_du alpha_pr  ls
  80 -2.4707013e-01 5.34e+00 1.67e+01  -6.0 1.65e+03  -9.4 2.69e-01 2.18e-01h  1
  81 -2.4763730e-01 6.19e+00 1.83e+01  -6.0 5.95e+03  -9.9 2.40e-02 3.52e-02h  1
  82 -2.4843770e-01 4.20e+00 2.45e+01  -6.0 8.23e+02  -9.5 1.00e+00 3.36e-01h  1
  83 -2.5018278e-01 1.18e+01 7.00e+00  -6.0 1.23e+03  -9.9 5.18e-01 6.99e-01h  1
  84 -2.5032823e-01 1.06e+01 1.55e+01  -6.0 3.55e+03 -10.4 3.20e-01 1.10e-01h  1
  85 -2.5044492e-01 8.89e+00 1.15e+01  -6.0 1.35e+03 -10.0 1.09e-01 2.00e-01h  1
  86 -2.5065657e-01 7.64e+00 9.53e+00  -6.0 3.97e+03 -10.5 1.85e-01 1.76e-01h  1
  87 -2.5140187e-01 1.35e+01 1.51e+01  -6.0 8.57e+03 -11.0 5.98e-01 3.40e-01h  1
  88 -2.5177844e-01 9.48e+00 1.20e+01  -6.0 5.47e+03 -10.5 1.03e-01 3.27e-01h  1
  89 -2.5195508e-01 2.36e+01 3.06e+01  -6.0 4.73e+03 -11.0 3.28e-01 3.51e-01h  1
iter    objective    inf_pr   inf_du lg(mu)  ||d||  lg(rg) alpha_du alpha_pr  ls
  90 -2.5211931e-01 1.92e+01 1.73e+02  -6.0 3.26e+03 -10.6 3.44e-01 2.14e-01h  1
  91 -2.5213239e-01 1.55e+01 4.60e+05  -6.0 1.42e+03 -10.2 3.95e-04 1.96e-01h  1
  92 -2.5218514e-01 1.54e+01 4.58e+05  -6.0 5.88e+03  -8.8 4.03e-03 4.06e-03h  1
  93 -2.5222292e-01 1.29e+01 1.36e+05  -6.0 1.67e+03  -9.3 3.23e-03 7.04e-01h  1
  94 -2.5193045e-01 1.41e+00 1.31e+03  -6.0 2.74e+02  -8.9 8.38e-01 1.00e+00h  1
  95 -2.5195170e-01 1.16e+00 1.02e+03  -6.0 4.06e+02  -9.4 3.85e-01 1.82e-01h  1
  96 -2.5208284e-01 1.44e+00 6.25e+02  -6.0 2.31e+03  -9.8 3.89e-01 3.89e-01h  1
  97 -2.5226195e-01 1.27e+00 3.70e+01  -6.0 7.53e+02  -9.4 1.00e+00 9.39e-01h  1
  98 -2.5237961e-01 6.29e-01 1.91e+03  -6.0 3.84e+02  -9.9 5.50e-02 1.00e+00h  1
  99 -2.5236376e-01 6.06e-02 3.55e+00  -6.0 1.22e+02  -8.6 1.00e+00 1.00e+00h  1
iter    objective    inf_pr   inf_du lg(mu)  ||d||  lg(rg) alpha_du alpha_pr  ls
 100 -2.5241360e-01 1.73e-01 2.46e+00  -6.0 3.36e+02  -9.0 4.12e-01 3.67e-01h  1
 101 -2.5251806e-01 1.36e+00 3.72e+01  -6.0 2.61e+03  -9.5 2.13e-01 1.02e-01h  1
 102 -2.5259934e-01 1.91e+00 7.61e+02  -6.0 7.59e+02 -10.0 4.01e-02 3.19e-01h  1
 103 -2.5265733e-01 2.25e+00 4.87e+02  -6.0 5.07e+03  -9.6 9.57e-02 3.04e-02h  1
 104 -2.5260931e-01 2.12e+00 9.34e+02  -6.0 6.58e+02  -8.2 9.56e-03 5.70e-02h  1
 105 -2.5275225e-01 6.59e-01 7.20e+03  -6.0 2.02e+02  -8.7 3.02e-02 1.00e+00h  1
 106 -2.5268576e-01 2.31e-02 1.84e+01  -6.0 1.34e+01  -6.5 8.00e-01 1.00e+00h  1
 107 -2.5272391e-01 1.89e-04 9.11e-02  -6.0 3.98e+00  -6.0 1.00e+00 1.00e+00h  1
 108 -2.5278795e-01 3.23e-02 1.54e+00  -6.0 1.25e+01  -6.5 8.45e-01 1.00e+00h  1
 109 -2.5283284e-01 2.91e-01 1.74e-01  -6.0 6.08e+00  -6.1 1.00e+00 1.00e+00h  1
iter    objective    inf_pr   inf_du lg(mu)  ||d||  lg(rg) alpha_du alpha_pr  ls
 110 -2.5283759e-01 2.85e-01 3.18e+00  -6.0 9.87e+00  -6.6 3.44e-01 4.41e-02h  1
 111 -2.5291453e-01 6.25e+00 3.65e+00  -6.0 1.33e+01  -7.1 1.00e+00 1.00e+00f  1
 112 -2.5299865e-01 1.10e+01 6.60e+00  -6.0 2.88e+01  -7.5 4.39e-01 4.42e-01h  1
 113 -2.5303158e-01 1.14e+01 8.69e+00  -6.0 8.90e+01  -8.0 1.64e-01 4.27e-02h  1
 114 -2.5303951e-01 1.11e+01 1.12e+01  -6.0 1.71e+02  -8.5 1.00e+00 2.62e-02h  1
 115 -2.5335850e-01 1.27e+00 8.40e-01  -6.0 3.96e+02  -9.0 1.00e+00 1.00e+00h  1
 116 -2.5341428e-01 1.06e+00 2.46e+00  -6.0 8.61e+02  -9.4 2.40e-01 1.48e-01h  1
 117 -2.5345159e-01 9.29e-01 2.59e+01  -6.0 1.03e+03  -9.9 1.00e+00 1.09e-01h  1
 118 -2.5372561e-01 6.32e+00 7.60e+00  -6.0 1.65e+03 -10.4 5.71e-01 7.39e-01h  1
 119 -2.5372735e-01 6.04e+00 4.37e+01  -6.0 2.57e+03 -10.0 1.00e+00 4.41e-02h  1
iter    objective    inf_pr   inf_du lg(mu)  ||d||  lg(rg) alpha_du alpha_pr  ls
 120 -2.5383026e-01 3.81e+00 2.75e+01  -6.0 2.00e+03 -10.4 5.56e-01 3.79e-01h  1
 121 -2.5429661e-01 4.32e+01 2.68e+01  -6.0 1.33e+04 -10.9 2.47e-02 2.66e-01h  1
 122 -2.5421328e-01 2.17e+01 7.27e+03  -6.0 2.74e+03  -9.6 1.53e-01 5.66e-01h  1
 123 -2.5432729e-01 7.80e+00 1.88e+03  -6.0 6.54e+02  -9.2 7.31e-02 7.10e-01h  1
 124 -2.5440984e-01 6.50e+00 1.80e+03  -6.0 7.52e+01  -7.8 2.13e-01 1.67e-01h  1
 125 -2.5431207e-01 6.37e-02 1.15e+03  -6.0 7.38e+01  -8.3 5.81e-01 1.00e+00h  1
 126 -2.5431409e-01 1.42e-02 2.63e+02  -6.0 5.29e+01  -8.8 1.00e+00 7.74e-01h  1
 127 -2.5435059e-01 3.63e-02 6.20e+00  -6.0 1.53e+02  -9.3 5.18e-01 1.00e+00f  1
 128 -2.5433363e-01 2.32e-02 4.05e+00  -6.0 1.88e+01  -7.0 5.92e-01 3.61e-01h  1
 129 -2.5436780e-01 5.80e-04 2.48e-01  -6.0 2.86e+00  -7.5 1.00e+00 1.00e+00h  1
iter    objective    inf_pr   inf_du lg(mu)  ||d||  lg(rg) alpha_du alpha_pr  ls
 130 -2.5437433e-01 3.08e-04 1.37e+00  -6.0 9.35e+00  -8.0 6.97e-01 1.00e+00h  1
 131 -2.5437379e-01 3.87e-04 1.19e-02  -6.0 3.23e+00  -7.6 1.00e+00 1.00e+00h  1
 132 -2.5441891e-01 1.10e-03 6.12e-02  -6.0 1.25e+01  -8.0 1.00e+00 1.00e+00h  1
 133 -2.5446832e-01 9.02e-04 8.38e-02  -6.0 7.72e+00  -7.6 1.00e+00 1.00e+00h  1
 134 -2.5450910e-01 5.57e-04 4.25e-02  -6.0 4.51e+00  -7.2 1.00e+00 1.00e+00h  1
 135 -2.5458319e-01 2.40e-03 5.18e+00  -6.0 1.43e+02  -7.7 1.23e-01 6.12e-02h  2
 136 -2.5469531e-01 7.36e-03 2.19e+01  -6.0 6.32e+02  -8.1 5.07e-02 2.61e-02h  1
 137 -2.5470254e-01 6.11e-03 1.90e+02  -6.0 7.76e+01  -8.6 4.76e-02 1.98e-01h  1
 138 -2.5472494e-01 1.57e-01 2.16e+01  -6.0 1.47e+02  -9.1 7.95e-01 8.31e-01f  1
 139 -2.5483143e-01 8.37e-01 1.89e+01  -6.0 3.83e+02  -9.6 1.00e+00 8.16e-01f  1
iter    objective    inf_pr   inf_du lg(mu)  ||d||  lg(rg) alpha_du alpha_pr  ls
 140 -2.5492223e-01 2.27e+00 3.16e+01  -6.0 1.47e+03 -10.1 1.00e+00 4.98e-01h  1
 141 -2.5501340e-01 2.01e+00 1.07e+03  -6.0 1.14e+03 -10.5 2.61e-01 6.44e-01h  1
 142 -2.5505530e-01 9.60e-01 2.97e+02  -6.0 2.99e+02  -9.2 1.00e+00 7.42e-01h  1
 143 -2.5505976e-01 9.16e-01 9.64e+00  -6.0 3.30e+02  -9.7 3.22e-01 4.67e-01h  1
 144 -2.5508242e-01 5.38e-02 1.99e-01  -6.0 6.34e+01  -8.3 1.00e+00 1.00e+00f  1
 145 -2.5511893e-01 3.65e-01 9.17e+00  -6.0 6.69e+02  -8.8 9.18e-02 1.76e-01h  1
 146 -2.5511693e-01 3.19e-01 5.88e+00  -6.0 1.83e+02  -9.3 2.65e-02 2.32e-01f  1
 147 -2.5513199e-01 3.20e-01 1.04e+01  -6.0 3.26e+02  -8.0 2.28e-02 6.35e-02f  1
 148 -2.5514974e-01 2.92e-01 5.56e+00  -6.0 1.35e+01  -6.6 2.44e-01 9.15e-02h  1
 149 -2.5526224e-01 1.05e+00 2.01e+01  -6.0 6.08e+00  -7.1 2.01e-01 1.00e+00f  1
iter    objective    inf_pr   inf_du lg(mu)  ||d||  lg(rg) alpha_du alpha_pr  ls
 150 -2.5529384e-01 1.29e+00 1.06e+01  -6.0 3.25e+01  -7.6 3.74e-01 1.03e-01h  1
 151 -2.5551438e-01 2.39e+01 1.33e+01  -6.0 2.68e+01  -8.1 4.37e-01 1.00e+00h  1
 152 -2.5558780e-01 2.34e+01 6.69e+00  -6.0 6.06e+01  -8.6 1.00e+00 3.84e-01h  1
 153 -2.5565824e-01 2.21e+01 2.13e+01  -6.0 1.69e+02  -9.0 6.92e-01 4.16e-01h  1
 154 -2.5573010e-01 1.87e+00 6.17e+00  -6.0 4.16e+02  -9.5 7.72e-01 1.00e+00h  1
 155 -2.5589535e-01 3.26e+00 2.74e+01  -6.0 1.54e+04    -  4.43e-01 9.09e-02h  1
 156 -2.5615835e-01 1.93e+01 2.40e+01  -6.0 2.36e+04    -  1.25e-01 2.20e-01h  1
 157 -2.5616301e-01 7.04e+00 2.04e+01  -6.0 1.50e+02  -9.1 9.80e-02 6.35e-01h  1
 158 -2.5625225e-01 3.48e-01 6.76e-01  -6.0 3.12e+02  -9.6 1.00e+00 1.00e+00h  1
 159 -2.5635531e-01 9.27e-01 5.26e-01  -6.0 6.94e+02 -10.0 1.00e+00 1.00e+00h  1
iter    objective    inf_pr   inf_du lg(mu)  ||d||  lg(rg) alpha_du alpha_pr  ls
 160 -2.5640083e-01 8.77e-01 1.21e+01  -6.0 4.65e+03    -  1.00e+00 2.17e-01h  1
 161 -2.5639964e-01 2.52e-01 9.67e-02  -6.0 1.94e+02  -9.6 1.00e+00 1.00e+00h  1
 162 -2.5640253e-01 3.73e-01 9.62e+00  -6.0 5.94e+02 -10.1 1.00e+00 1.06e-01h  2
 163 -2.5645997e-01 1.18e+00 5.33e+00  -6.0 3.77e+03    -  1.00e+00 5.12e-01h  1
 164 -2.5643431e-01 3.83e+00 2.66e+00  -6.0 2.04e+03    -  1.00e+00 1.00e+00h  1
 165 -2.5643496e-01 5.92e-01 3.57e+00  -6.0 2.23e+02    -  2.46e-01 1.00e+00h  1
 166 -2.5643866e-01 1.87e-01 5.97e-02  -6.0 1.28e+02    -  1.00e+00 1.00e+00h  1
 167 -2.5643962e-01 1.02e-01 3.59e-03  -6.0 9.40e+01    -  1.00e+00 1.00e+00h  1
 168 -2.5643974e-01 1.89e-02 7.41e-04  -6.0 4.03e+01    -  1.00e+00 1.00e+00h  1
 169 -2.5643974e-01 2.88e-10 5.41e-09  -6.0 1.56e-02    -  1.00e+00 1.00e+00h  1
iter    objective    inf_pr   inf_du lg(mu)  ||d||  lg(rg) alpha_du alpha_pr  ls
 170 -2.5683194e-01 6.53e-01 2.37e+01  -7.5 1.76e+03    -  1.43e-01 2.21e-01f  1
 171 -2.5712157e-01 3.50e+01 9.13e+01  -7.5 4.52e+03    -  1.35e-02 3.05e-01h  1
 172 -2.5713701e-01 3.41e+01 5.06e+01  -7.5 2.07e+03    -  2.00e-01 2.55e-02h  1
 173 -2.5723703e-01 3.17e+01 4.16e+01  -7.5 2.47e+03    -  1.79e-01 1.75e-01h  1
 174 -2.5741506e-01 2.66e+01 3.12e+01  -7.5 5.60e+03    -  2.10e-01 1.72e-01h  1
 175 -2.5750240e-01 2.58e+01 3.30e+01  -7.5 1.94e+03  -9.7 2.77e-04 2.91e-02h  1
 176 -2.5751182e-01 2.58e+01 2.24e+01  -7.5 1.18e+03 -10.1 1.09e-01 3.07e-03h  1
 177 -2.5753819e-01 2.57e+01 2.24e+01  -7.5 9.28e+04    -  4.17e-05 3.17e-03h  1
 178 -2.5813120e-01 1.89e+01 5.96e+01  -7.5 1.34e+03    -  2.01e-02 2.72e-01h  1
 179 -2.5814147e-01 1.88e+01 5.72e+01  -7.5 1.29e+03    -  2.07e-02 8.06e-03h  1
iter    objective    inf_pr   inf_du lg(mu)  ||d||  lg(rg) alpha_du alpha_pr  ls
 180 -2.5824041e-01 1.79e+01 6.27e+01  -7.5 3.01e+03    -  1.53e-03 4.97e-02h  1
 181 -2.5830107e-01 1.70e+01 6.28e+01  -7.5 8.67e+02    -  3.23e-02 4.89e-02h  1
 182 -2.5838732e-01 1.58e+01 6.98e+01  -7.5 9.13e+02    -  1.65e-03 7.13e-02h  1
 183 -2.5843000e-01 1.51e+01 3.53e+01  -7.5 8.84e+02    -  2.59e-01 4.52e-02h  1
 184 -2.5846030e-01 1.43e+01 1.82e+01  -7.5 1.35e+03    -  2.66e-01 4.99e-02h  1
 185 -2.5860747e-01 1.06e+01 2.40e+01  -7.5 1.39e+03    -  5.58e-02 2.57e-01h  1
 186 -2.5879939e-01 6.59e+00 3.14e+01  -7.5 1.32e+03    -  4.65e-02 3.82e-01h  1
 187 -2.5925669e-01 6.57e+00 7.66e+01  -7.5 6.17e+02    -  3.02e-02 9.73e-01h  1
 188 -2.5926442e-01 6.57e+00 7.65e+01  -7.5 2.64e+03  -8.8 1.15e-03 1.07e-03h  1
 189 -2.5932674e-01 6.69e+00 7.57e+01  -7.5 3.18e+03  -9.3 1.06e-02 7.80e-03h  1
iter    objective    inf_pr   inf_du lg(mu)  ||d||  lg(rg) alpha_du alpha_pr  ls
 190 -2.5956064e-01 6.30e+00 7.39e+01  -7.5 2.25e+03  -8.9 2.52e-02 5.55e-02h  1
 191 -2.5956075e-01 6.14e+00 4.72e+01  -7.5 2.15e+01  -7.5 3.50e-01 2.65e-02h  1
 192 -2.5955168e-01 6.04e+00 4.45e+01  -7.5 3.23e+02  -8.0 5.39e-02 1.64e-02h  1
 193 -2.5955716e-01 5.16e+00 4.48e+01  -7.5 5.59e+01  -7.6 1.58e-03 1.44e-01h  1
 194 -2.5969615e-01 3.91e+00 4.11e+01  -7.5 3.74e+02  -8.1 8.86e-02 2.41e-01h  1
 195 -2.5969260e-01 3.69e+00 4.12e+01  -7.5 1.06e+03    -  2.10e-04 5.60e-02h  1
 196 -2.5961627e-01 1.17e-01 4.27e+01  -7.5 1.56e+01  -6.7 1.59e-03 9.68e-01h  1
 197 -2.5965391e-01 4.09e-01 4.06e+01  -7.5 4.73e+03    -  4.95e-02 3.15e-02f  1
 198 -2.5965480e-01 4.09e-01 3.68e+01  -7.5 7.70e+03    -  9.98e-02 1.13e-03h  2
 199 -2.5965518e-01 4.07e-01 3.56e+01  -7.5 1.07e+03    -  3.27e-02 4.89e-03h  1
iter    objective    inf_pr   inf_du lg(mu)  ||d||  lg(rg) alpha_du alpha_pr  ls
 200 -2.5967163e-01 9.86e-01 2.73e+01  -7.5 1.01e+03    -  2.33e-01 3.07e-01f  1
 201 -2.5967002e-01 9.21e-01 2.53e+01  -7.5 4.15e+00  -7.2 7.05e-02 6.63e-02h  1
 202 -2.5965906e-01 4.34e-01 1.81e+01  -7.5 7.12e+00  -7.7 2.86e-01 5.29e-01h  1
 203 -2.5965225e-01 7.40e-02 7.82e+00  -7.5 6.16e+00  -7.3 5.68e-01 8.29e-01h  1
 204 -2.5965330e-01 4.69e-01 7.61e+00  -7.5 1.80e+04    -  2.52e-02 1.03e-02h  5
 205 -2.5966332e-01 2.13e-02 1.32e+00  -7.5 5.34e+00  -7.7 1.00e+00 1.00e+00h  1
 206 -2.5967024e-01 2.36e-02 5.21e+02  -7.5 6.38e+00  -8.2 2.56e-01 1.00e+00h  1
 207 -2.5966447e-01 4.38e-04 2.84e+00  -7.5 1.44e+01  -8.7 1.00e+00 1.00e+00H  1
 208 -2.5966859e-01 1.27e-04 9.74e-03  -7.5 4.20e+01  -9.2 1.00e+00 1.00e+00H  1
 209 -2.5967681e-01 2.49e-01 1.80e-03  -7.5 1.14e+02  -9.6 1.00e+00 1.00e+00h  1
iter    objective    inf_pr   inf_du lg(mu)  ||d||  lg(rg) alpha_du alpha_pr  ls
 210 -2.5969282e-01 1.40e+00 9.45e-03  -7.5 2.70e+02 -10.1 1.00e+00 1.00e+00h  1
 211 -2.5971233e-01 4.95e+00 2.60e-02  -7.5 5.04e+02 -10.6 1.00e+00 1.00e+00h  1
 212 -2.5972715e-01 1.42e+01 4.27e-02  -7.5 8.40e+02 -11.1 1.00e+00 1.00e+00h  1
 213 -2.5974054e-01 3.86e+01 1.32e-01  -7.5 6.08e+03 -11.6 2.22e-01 1.88e-01h  1
 214 -2.5973362e-01 2.72e+00 7.63e-01  -7.5 3.87e+02 -11.1 6.22e-01 1.00e+00h  1
 215 -2.5975054e-01 2.82e+01 2.03e-01  -7.5 1.14e+03 -10.7 8.95e-01 1.00e+00h  1
 216 -2.5975936e-01 2.68e+01 8.92e-01  -7.5 2.20e+03 -11.2 5.45e-01 1.73e-01h  1
 217 -2.5975870e-01 2.87e+01 5.64e+00  -7.5 2.47e+03    -  3.67e-02 3.84e-01H  1
 218 -2.5976045e-01 2.48e+01 3.28e+00  -7.5 8.16e+02 -11.7 8.11e-01 1.43e-01h  1
 219 -2.5976112e-01 3.79e+01 2.93e+00  -7.5 1.04e+04 -12.1 2.40e-01 1.06e-01h  2
iter    objective    inf_pr   inf_du lg(mu)  ||d||  lg(rg) alpha_du alpha_pr  ls
 220 -2.5976170e-01 4.52e+01 2.91e+00  -7.5 9.20e+04 -12.6 2.57e-02 8.24e-03h  2
 221 -2.5976230e-01 4.67e+01 6.51e+00  -7.5 8.10e+03    -  6.57e-01 7.23e-02h  2
 222 -2.5976535e-01 6.24e+01 1.03e+00  -7.5 2.07e+03    -  8.25e-01 1.00e+00h  1
 223 -2.5976506e-01 4.76e+00 4.33e+00  -7.5 6.18e+02    -  7.64e-02 1.00e+00h  1
 224 -2.5976504e-01 7.05e-02 3.51e-04  -7.5 6.38e+01 -10.4 1.00e+00 1.00e+00h  1
 225 -2.5976780e-01 5.97e+01 7.66e-01  -7.5 5.05e+03    -  2.28e-01 4.62e-01H  1
 226 -2.5976601e-01 5.06e+01 1.54e-01  -7.5 2.16e+03    -  1.00e+00 1.00e+00H  1
 227 -2.5976781e-01 2.94e+01 1.18e-01  -7.5 1.41e+03    -  1.00e+00 1.00e+00h  1
 228 -2.5976808e-01 1.05e-02 1.98e+00  -7.5 4.65e+00    -  6.89e-01 1.00e+00h  1
 229 -2.5976791e-01 5.35e-01 2.91e-03  -7.5 1.77e+02    -  1.00e+00 1.00e+00h  1
iter    objective    inf_pr   inf_du lg(mu)  ||d||  lg(rg) alpha_du alpha_pr  ls
 230 -2.5976790e-01 5.31e-03 1.97e-05  -7.5 1.82e+01    -  1.00e+00 1.00e+00h  1
 231 -2.5976790e-01 4.25e-10 3.12e-11  -7.5 1.19e-03    -  1.00e+00 1.00e+00h  1
 232 -2.5976941e-01 4.84e-01 8.17e+00  -9.0 8.36e+02    -  6.89e-01 2.02e-01h  1
 233 -2.5977262e-01 4.05e+01 1.21e+00  -9.0 1.78e+03    -  4.40e-01 8.70e-01h  1
 234 -2.5977264e-01 3.98e+01 8.92e-01  -9.0 1.04e+04    -  1.20e-01 1.78e-02h  5
 235 -2.5977266e-01 3.91e+01 8.37e-01  -9.0 9.82e+03    -  3.38e-02 1.88e-02h  5
 236 -2.5977231e-01 9.14e+00 1.79e+00  -9.0 1.43e+01 -10.9 1.27e-01 7.66e-01h  1
 237 -2.5977238e-01 2.67e+00 1.60e-01  -9.0 2.61e+02 -11.3 9.26e-01 1.00e+00h  1
 238 -2.5977247e-01 6.19e-01 7.62e-04  -9.0 1.81e+02 -11.8 1.00e+00 1.00e+00h  1
 239 -2.5977276e-01 8.12e+00 1.24e-02  -9.0 6.57e+02 -12.3 9.06e-02 1.00e+00h  1
iter    objective    inf_pr   inf_du lg(mu)  ||d||  lg(rg) alpha_du alpha_pr  ls
 240 -2.5977302e-01 2.19e+01 3.31e-02  -9.0 1.05e+03 -12.8 2.09e-01 1.00e+00h  1
 241 -2.5977354e-01 8.68e+01 3.48e-02  -9.0 6.04e+04 -12.3 7.96e-03 4.49e-02h  1
 242 -2.5977358e-01 8.10e+01 3.52e-02  -9.0 7.29e+03 -12.8 1.82e-01 7.55e-02h  2
 243 -2.5977403e-01 6.92e+01 4.20e-02  -9.0 3.74e+03 -12.4 1.20e-01 2.40e-01h  1
 244 -2.5977490e-01 6.80e+01 1.03e+00  -9.0 2.85e+03 -12.9 4.47e-01 5.95e-01h  1
 245 -2.5977541e-01 3.22e+00 3.93e+00  -9.0 4.08e+02 -11.5 6.07e-04 1.00e+00h  1
 246 -2.5977628e-01 2.07e+01 1.35e+00  -9.0 1.34e+03 -12.0 1.63e-01 7.05e-01h  1
 247 -2.5977552e-01 1.53e-02 6.28e+00  -9.0 1.10e+03 -11.6 3.28e-01 1.00e+00H  1
 248 -2.5977594e-01 3.87e+00 8.79e-03  -9.0 4.43e+02 -12.1 6.60e-01 1.00e+00h  1
 249 -2.5977710e-01 1.52e+01 1.79e-02  -9.0 1.66e+03 -12.5 1.31e-01 4.85e-01h  1
iter    objective    inf_pr   inf_du lg(mu)  ||d||  lg(rg) alpha_du alpha_pr  ls
 250 -2.5977833e-01 6.37e+01 2.59e-02  -9.0 5.04e+03 -13.0 2.25e-01 3.81e-01h  1
 251 -2.5977763e-01 7.71e+01 1.81e+01  -9.0 2.90e+03 -11.7 1.11e-01 6.21e-01h  1
 252 -2.5977868e-01 3.80e+01 7.77e+02  -9.0 1.50e+03 -12.2 3.39e-05 1.00e+00h  1
 253 -2.5977971e-01 5.28e+01 5.07e+00  -9.0 2.00e+03 -12.6 4.38e-01 1.00e+00h  1
 254 -2.5978113e-01 1.36e+01 3.54e-02  -9.0 9.84e+02 -12.2 3.32e-01 1.00e+00h  1
 255 -2.5978267e-01 7.99e+01 3.07e-02  -9.0 1.59e+04 -12.7 1.29e-01 1.43e-01h  1
 256 -2.5978280e-01 7.73e+01 2.98e-02  -9.0 1.10e+04    -  5.12e-02 3.45e-02h  1
 257 -2.5978278e-01 6.81e+01 2.10e-01  -9.0 8.29e+02 -11.4 5.04e-03 1.20e-01h  1
 258 -2.5978330e-01 9.83e+00 4.22e-01  -9.0 8.03e+02 -11.8 4.58e-03 1.00e+00h  1
 259 -2.5978540e-01 2.97e+01 1.65e-02  -9.0 1.39e+03 -12.3 7.26e-01 1.00e+00h  1
iter    objective    inf_pr   inf_du lg(mu)  ||d||  lg(rg) alpha_du alpha_pr  ls
 260 -2.5978694e-01 5.43e+01 3.77e-02  -9.0 4.19e+03 -12.8 4.58e-02 3.49e-01h  1
 261 -2.5978847e-01 6.56e+01 2.01e+00  -9.0 8.33e+03 -12.4 1.24e-01 2.36e-01h  1
 262 -2.5978866e-01 6.36e+01 1.91e+00  -9.0 8.41e+03 -11.9 1.61e-02 3.16e-02h  3
 263 -2.5978887e-01 6.03e+01 1.41e+00  -9.0 2.26e+03 -12.4 3.66e-01 5.39e-02h  1
 264 -2.5979073e-01 5.53e+01 8.93e-01  -9.0 3.40e+03 -12.9 4.65e-01 3.32e-01h  1
 265 -2.5979425e-01 5.45e+01 8.49e-01  -9.0 1.75e+03 -12.5 5.46e-01 1.00e+00h  1
 266 -2.5979502e-01 4.33e+01 8.27e+00  -9.0 1.61e+03 -12.9 1.29e-02 2.79e-01h  1
 267 -2.5979712e-01 4.21e+01 6.76e+01  -9.0 1.54e+03 -12.5 1.74e-02 8.85e-01h  1
 268 -2.5979719e-01 3.95e+01 6.33e+01  -9.0 6.14e+03    -  2.67e-01 7.21e-02h  2
 269 -2.5979741e-01 3.60e+01 5.69e+01  -9.0 2.15e+03    -  5.59e-01 1.06e-01h  1
iter    objective    inf_pr   inf_du lg(mu)  ||d||  lg(rg) alpha_du alpha_pr  ls
 270 -2.5979776e-01 3.12e+01 4.46e+01  -9.0 1.74e+03    -  1.68e-01 2.25e-01h  1
 271 -2.5979802e-01 2.71e+01 3.65e+01  -9.0 1.53e+03    -  1.09e-01 1.90e-01h  1
 272 -2.5979873e-01 2.75e+01 1.70e+01  -9.0 1.46e+03 -12.1 1.00e-01 5.85e-01h  1
 273 -2.5979877e-01 2.68e+01 1.66e+01  -9.0 1.79e+03 -12.6 9.49e-03 2.62e-02h  1
 274 -2.5979878e-01 2.62e+01 1.62e+01  -9.0 2.65e+03 -12.1 4.12e-03 3.12e-02h  1
 275 -2.5979878e-01 2.51e+01 1.53e+01  -9.0 1.51e+03 -12.6 9.54e-02 4.24e-02h  1
 276 -2.5979878e-01 2.33e+01 1.38e+01  -9.0 1.77e+03 -12.2 1.37e-01 9.00e-02h  1
 277 -2.5979878e-01 2.22e+01 1.23e+01  -9.0 1.51e+03 -12.7 3.65e-01 5.74e-02h  1
 278 -2.5979880e-01 1.99e+01 7.17e+02  -9.0 1.43e+03 -12.3 2.73e-03 1.58e-01h  1
 279 -2.5979885e-01 1.85e+01 6.49e+02  -9.0 1.46e+03    -  2.33e-02 9.53e-02h  1
iter    objective    inf_pr   inf_du lg(mu)  ||d||  lg(rg) alpha_du alpha_pr  ls
 280 -2.5979883e-01 1.81e+01 6.36e+02  -9.0 3.06e+03 -12.7 5.74e-04 2.03e-02h  1
 281 -2.5979874e-01 1.58e+01 5.53e+02  -9.0 2.97e+03    -  3.70e-02 1.29e-01h  3
 282 -2.5979870e-01 1.48e+01 5.20e+02  -9.0 1.54e+03 -12.3 2.33e-01 6.10e-02h  1
 283 -2.5979808e-01 5.66e+00 7.89e+01  -9.0 1.94e+03    -  8.05e-02 8.48e-01H  1
 284 -2.5979809e-01 5.49e+00 7.68e+01  -9.0 1.64e+03 -12.8 1.00e+00 2.68e-02h  1
 285 -2.5979818e-01 2.37e+00 2.85e-01  -9.0 3.16e+02    -  1.58e-01 1.00e+00h  1
 286 -2.5979838e-01 1.42e+01 2.07e-01  -9.0 5.39e+03    -  7.05e-02 1.33e-01h  2
 287 -2.5979891e-01 3.11e+01 2.03e-01  -9.0 1.38e+03    -  3.36e-02 1.00e+00H  1
 288 -2.5979897e-01 2.07e+00 6.43e-02  -9.0 2.82e+02    -  9.89e-01 1.00e+00h  1
 289 -2.5979875e-01 1.22e+00 7.02e-03  -9.0 2.39e+02 -12.4 1.00e+00 1.00e+00h  1
iter    objective    inf_pr   inf_du lg(mu)  ||d||  lg(rg) alpha_du alpha_pr  ls
 290 -2.5979877e-01 1.09e+00 3.71e-03  -9.0 2.26e+02    -  1.00e+00 1.00e+00h  1
 291 -2.5979876e-01 1.46e-02 5.01e-05  -9.0 3.56e+01    -  1.00e+00 1.00e+00h  1
 292 -2.5979876e-01 4.57e-04 1.19e-07  -9.0 6.28e+00    -  1.00e+00 1.00e+00h  1
 293 -2.5979876e-01 1.21e-06 1.53e-10  -9.0 3.23e-01    -  1.00e+00 1.00e+00h  1
 294 -2.5979876e-01 3.08e-10 2.96e-14  -9.0 9.22e-04    -  1.00e+00 1.00e+00h  1

Number of Iterations....: 294

                                   (scaled)                 (unscaled)
Objective...............:  -2.5979876376609462e-01   -2.5979876376609462e-01
Dual infeasibility......:   2.9569339018166690e-14    2.9569339018166690e-14
Constraint violation....:   3.0750161076308069e-10    3.0750161076308069e-10
Complementarity.........:   9.0909091554562079e-10    9.0909091554562079e-10
Overall NLP error.......:   9.0909091554562079e-10    9.0909091554562079e-10


Number of objective function evaluations             = 380
Number of objective gradient evaluations             = 295
Number of equality constraint evaluations            = 383
Number of inequality constraint evaluations          = 381
Number of equality constraint Jacobian evaluations   = 295
Number of inequality constraint Jacobian evaluations = 295
Number of Lagrangian Hessian evaluations             = 294
Total CPU secs in IPOPT (w/o function evaluations)   =    572.997
Total CPU secs in NLP function evaluations           =     10.531

EXIT: Optimal Solution Found.
